NAME: ./prFile/tspFile/tsp_file51.tsp
COMMENT: TSP file generated by Python
TYPE: TSP
DIMENSION: 40
EDGE_WEIGHT_TYPE: EUC_2D
NODE_COORD_SECTION
1 90 82
2 28 49
3 64 93
4 54 42
5 14 6
6 55 37
7 68 95
8 22 60
9 21 56
10 75 50
11 50 97
12 18 77
13 2 88
14 69 50
15 60 85
16 16 86
17 76 16
18 96 98
19 35 6
20 4 77
21 54 80
22 5 20
23 33 41
24 81 21
25 57 8
26 91 98
27 43 98
28 89 10
29 26 97
30 72 75
31 55 50
32 92 99
33 52 61
34 14 82
35 38 35
36 62 75
37 40 86
38 9 49
39 59 26
40 75 79
EOF
